letting initialStacks = [32, 28, 29, 10, 2, 44, 22, 4, 25, 17, 23, 48, 14, 26, 38, 51, 19, 11, 41, 8, 12, 35, 34, 7, 24, 1, 15, 5, 13, 33, 6, 37, 43, 21, 20, 46, 45, 50, 30, 9, 3, 47, 40, 31, 18, 36, 42, 39, 49, 16, 27]
